25
0 -4 0 0 -2 2 1 1 -10 5 2 8 4 2 4 3 2 0 0 0 0 0 0 0 0 
1 0 0 2 3 0 0 1 -1 2 4 0 1 0 4 0 0 0 0 0 0 0 0 0 0 
0 0 0 1 0 0 6 2 0 8 0 0 0 0 0 2 1 0 0 0 0 0 0 0 0 
0 2 3 0 2 3 0 2 3 0 1 0 2 2 4 -5 3 0 0 0 0 0 2 0 0 
-2 2 0 0 0 3 0 1 -1 -1 2 -10 3 0 5 2 2 0 0 0 0 0 0 0 2 
3 1 0 0 3 0 0 0 -2 0 0 6 3 0 6 8 2 0 0 0 0 0 0 0 0 
1 1 8 1 0 0 0 2 0 4 1 0 0 2 3 2 6 0 0 0 0 0 3 0 0 
1 1 3 1 0 0 2 0 1 2 0 2 0 1 0 2 2 0 0 0 0 0 6 0 1 
0 7 1 4 1 8 0 1 0 0 4 4 7 0 0 1 2 0 0 0 0 0 7 0 5 
1 0 7 0 -1 0 1 1 0 0 0 0 2 1 1 0 2 0 0 0 0 0 0 0 1 
1 4 0 1 1 4 0 0 -4 0 0 0 3 0 5 0 0 0 0 0 0 0 1 0 0 
10 0 0 0 -10 10 0 1 4 0 0 0 2 0 4 3 2 0 0 0 0 0 0 0 0 
4 1 0 1 2 5 0 0 -1 3 3 1 0 10 0 3 2 0 0 0 0 0 3 0 2 
2 0 3 1 0 0 1 1 0 1 0 0 10 0 0 0 0 0 0 0 0 0 0 0 3 
5 4 1 2 3 6 3 1 0 1 5 6 0 0 0 4 3 0 0 0 0 0 0 0 0 
6 0 1 0 1 8 5 2 -10 0 0 2 3 0 4 0 2 0 0 0 0 0 0 0 0 
2 0 7 3 2 3 6 2 0 5 2 2 3 0 5 8 0 0 0 0 0 0 2 0 1 
0 0 0 0 0 0 0 0 0 0 0 0 0 0 0 0 0 0 0 0 0 0 0 0 0 
0 0 0 0 0 0 0 0 0 0 0 0 0 0 0 0 0 0 0 0 0 0 0 0 0 
0 0 0 0 0 0 0 0 0 0 0 0 0 0 0 0 0 0 0 0 0 0 0 0 0 
0 0 0 0 0 0 0 0 0 0 0 0 0 0 0 0 0 0 0 0 0 0 0 0 0 
0 0 0 0 0 0 0 0 0 0 0 0 0 0 0 0 0 0 0 0 0 0 0 0 0 
0 0 0 2 0 0 3 6 -3 5 1 0 3 0 0 0 2 0 0 0 0 0 0 0 4 
0 0 0 0 0 0 0 0 0 0 0 0 0 0 0 0 0 0 0 0 0 0 0 0 0 
1 0 0 0 1 0 0 1 0 1 0 0 2 4 0 0 1 0 0 0 0 0 5 0 0 

BitCoin Vertices:
1810, 2067, 1386, 546, 2388, 1018, 1396, 353, 2028, 135, 1832, 2942, 1899, 304, 4291, 57, 1565, 1899, 4291, 1832, 1565, 2388, 13, 1565, 2176
NUM EDGES NEG = 16
NUM EDGES POS = 192